c turning on binary mode checking
c parsing input formula with 259840 variables and 1039929 clauses
c finished parsing, read 23737331 bytes from proof file
c detected empty clause; start verification via backward checking
c 22761 of 1039929 clauses in core                            
c 29882 of 607683 lemmas in core using 255571 resolution steps
c 0 RAT lemmas in core; 2287 redundant literals in core lemmas
s VERIFIED
c verification time: 3.553 seconds
